598,150
227,637
765,322
296,345
698,430
536,511
803,646
727,110
450,-48
611,850
448,173
681,856
972,617
801,36
593,527
463,564
196,249
477,6
709,415
844,726
611,309
644,169
406,131
994,305
980,818
1066,345
626,577
1194,572
668,380
681,646
470,115
1041,766
602,-97
523,624
512,575
898,-21
871,32
382,818
635,548
